c SAT Generator for power-law distributed variable frequencies
c -g u -v 20 -c 91 -k 3 -p 2.750000 -b 3.200000 -f /home/schmidt/Devel/ni-kop-sat/data/ensemble/ruf20-91/ruf20-91-9 -u 1 -U 1 -s 3798647417
p cnf 20 91
-6 -12 -14 0
11 -16 19 0
-1 -8 -17 0
-1 13 20 0
9 -17 -18 0
-3 -6 -16 0
2 -5 14 0
2 9 19 0
-1 2 -5 0
-3 -9 -16 0
-1 2 -9 0
-1 -16 17 0
-1 -7 -18 0
2 -12 14 0
5 -9 -17 0
-5 13 14 0
-8 14 -18 0
-3 -13 -18 0
6 -9 12 0
5 -14 -16 0
-9 -18 20 0
4 7 18 0
7 8 18 0
-4 -11 12 0
-3 -13 -16 0
4 18 -20 0
8 9 13 0
-4 11 -19 0
-2 15 17 0
9 16 -17 0
-1 14 -17 0
-3 -13 14 0
-6 -14 15 0
4 14 18 0
6 14 -20 0
5 6 -19 0
-6 -9 17 0
7 12 -16 0
-14 15 17 0
-4 13 17 0
-1 -3 19 0
-10 12 -15 0
8 -11 12 0
-4 14 16 0
6 14 -15 0
-7 10 -17 0
-1 10 -16 0
-10 13 -15 0
5 10 -19 0
4 -18 -20 0
1 -9 -20 0
7 10 17 0
-6 11 13 0
-1 12 -13 0
-11 -15 -16 0
-4 11 -15 0
-2 5 -9 0
-3 -5 10 0
7 -18 20 0
7 14 19 0
-1 -9 12 0
-3 -17 -20 0
-2 6 -9 0
-3 -8 10 0
2 -14 -18 0
3 -7 14 0
9 11 17 0
-2 15 -18 0
4 13 -19 0
1 6 17 0
6 -13 16 0
-15 18 -19 0
-1 -9 -18 0
-2 -4 -17 0
-8 14 17 0
-2 6 9 0
5 7 -12 0
7 19 20 0
9 -16 -20 0
10 -17 19 0
2 15 19 0
5 14 15 0
-2 -10 -12 0
-2 -4 -5 0
-11 -13 17 0
1 -3 14 0
6 19 20 0
6 -9 17 0
-9 10 -14 0
4 16 -20 0
1 -11 16 0
